100
128
22
13
25
34
64
24
4
3
22
26
4
9
7
9
10
8
24
28
18
5
10
8
5
23
8
15
16
27
10
3
26
18
62
47
13
48
61
18
17
17
20
16
13
13
27
10
14
48
5
12
13
5
16
33
1
34
57
39
32
12
3
17
12
5
6
57
29
13
27
6
14
25
30
64
62
24
27
30
63
32
23
56
20
38
62
28
39
45
54
40
44
34
64
64
45
22
61
64
64
28